p edge 50 123 10
v 5 5 24 30 32 35
v 4 8 28 29 45
v 5 12 21 26 34 40
v 5 10 16 39 44 47
v 8 1 2 3 6 9 20 25 46
v 2 36 43
v 6 11 13 14 18 42 50
v 6 7 22 31 37 41 48
v 6 4 15 17 19 23 27
v 3 33 38 49
e 1 9
e 1 13
e 1 19
e 1 24
e 1 36
e 1 39
e 1 45
e 1 49
e 2 11
e 2 27
e 2 28
e 2 30
e 3 5
e 3 27
e 3 28
e 3 39
e 3 43
e 3 44
e 4 5
e 4 21
e 4 41
e 4 46
e 4 50
e 5 28
e 5 34
e 6 10
e 6 14
e 6 18
e 6 41
e 6 46
e 7 12
e 7 15
e 7 30
e 8 39
e 8 50
e 9 14
e 9 18
e 9 22
e 9 24
e 9 31
e 9 48
e 10 13
e 10 19
e 10 35
e 10 42
e 10 47
e 11 27
e 11 49
e 12 13
e 12 23
e 12 32
e 13 15
e 13 16
e 13 39
e 14 15
e 14 17
e 14 26
e 14 39
e 14 42
e 15 26
e 16 40
e 16 43
e 16 49
e 17 26
e 17 27
e 17 28
e 17 39
e 17 43
e 17 46
e 18 31
e 18 34
e 18 46
e 19 25
e 19 30
e 19 31
e 19 37
e 19 42
e 20 29
e 20 36
e 20 43
e 20 49
e 21 27
e 21 30
e 22 26
e 22 47
e 23 41
e 23 42
e 24 42
e 25 27
e 25 35
e 25 36
e 25 38
e 25 39
e 25 41
e 26 36
e 27 43
e 27 44
e 27 50
e 28 36
e 28 38
e 28 42
e 30 32
e 30 34
e 30 46
e 31 40
e 32 44
e 32 50
e 34 46
e 34 49
e 36 44
e 37 48
e 38 40
e 39 50
e 40 45
e 40 49
e 41 47
e 41 48
e 42 46
e 43 44
e 44 46
e 46 48
e 46 49
e 47 50
